Solving original (integer) problem with strategy gdp.hull_exact...
--- Job model.gms Start 02/14/26 17:15:55 52.2.0 d8e408be LEX-LEG x86 64bit/Linux
--- Applying:
    /package/gams/52.2/gmsprmun.txt
--- GAMS Parameters defined
    Input /local/scratch/a/sgusev/repos/k_means/data/gams_gurobi_gdp.hull_exact/no_mode/2026-02-14_17-15-55/original/model.gms
    Output /local/scratch/a/sgusev/repos/k_means/data/gams_gurobi_gdp.hull_exact/no_mode/2026-02-14_17-15-55/original/output.lst
    ScrDir /local/scratch/a/sgusev/repos/k_means/data/gams_gurobi_gdp.hull_exact/no_mode/2026-02-14_17-15-55/original/225a/
    SysDir /package/gams/52.2/
    CurDir /local/scratch/a/sgusev/repos/k_means/data/gams_gurobi_gdp.hull_exact/no_mode/2026-02-14_17-15-55/original/
    LogOption 3
    AppendLog 1
Licensee: David Bernal / SECQUOIA Research Group         G251008+0003Ac-GEN
          Purdue University, Davidson School of Chemical EngineeringDCE4838
          225a/gamslice.dat
          5a82958a-fbca-4a23
          node:66820903 mem:995 cores:48 ipport:53723 v:2                  
          Evaluation license: Not for commercial or production use
          The time-limited license stops working on : Jun 30, 2027
System information: 48 physical cores and 995 Gb physical memory detected
GAMS 52.2.0   Copyright (C) 1987-2025 GAMS Development. All rights reserved
--- Starting compilation
--- model.gms(1529) 2 Mb
--- $echo File /local/scratch/a/sgusev/repos/k_means/data/gams_gurobi_gdp.hull_exact/no_mode/2026-02-14_17-15-55/original/gurobi.opt
--- model.gms(2289) 2 Mb
--- Starting execution: elapsed 0:00:00.011
--- model.gms(1538) 3 Mb
--- Generating MINLP model GAMS_MODEL
--- model.gms(1542) 5 Mb
---   459 rows  235 columns  1,109 non-zeroes
---   756 nl-code  144 nl-non-zeroes
---   36 discrete-columns
--- Range statistics (absolute non-zero finite values)
--- RHS       [min, max] : [ 1.000E+00, 1.000E+00] - Zero values observed as well
--- Bound     [min, max] : [ 1.000E+00, 4.800E+01] - Zero values observed as well
--- Matrix    [min, max] : [ 1.000E+00, 4.800E+01] - Zero values observed as well
--- model.gms(1542) 3 Mb
--- Executing GUROBI (Solvelink=5): elapsed 0:00:00.015
Reading parameter(s) from "/local/scratch/a/sgusev/repos/k_means/data/gams_gurobi_gdp.hull_exact/no_mode/2026-02-14_17-15-55/original/gurobi.opt"
>>  NonConvex 2
>>  Threads 1
>>  MIPGap 1e-06
>>  MIPGapAbs 1e-10
>>  FeasibilityTol 1e-06
>>  OptimalityTol 1e-06
>>  IntFeasTol 1e-05
Finished reading from "/local/scratch/a/sgusev/repos/k_means/data/gams_gurobi_gdp.hull_exact/no_mode/2026-02-14_17-15-55/original/gurobi.opt"

... GRB_LICENSE_FILE = /local/scratch/a/sgusev/gurobi.lic

    Gurobi           52.2.0 d8e408be Dec 8, 2025           LEG x86 64bit/Linux    

... GAMS/Gurobi Link license.
... GMO Q Extraction (ThreePass): 0.00s

    Gurobi Optimizer version 13.0.0 build v13.0.0rc1 (linux64 - "Oracle Linux Server 9.7")
    
    CPU model: AMD EPYC 7643 48-Core Processor, instruction set [SSE2|AVX|AVX2]
    Thread count: 48 physical cores, 96 logical processors, using up to 1 threads
    
    Non-default parameters:
    TimeLimit  300
    MIPGap  1e-06
    LogToConsole  0
    NonConvex  2
    Threads  1
    
    Optimize a model with 422 rows, 234 columns and 952 nonzeros (Min)
    Model fingerprint: 0xffad7954
    Model has 12 linear objective coefficients
    Model has 36 quadratic constraints
    Variable types: 198 continuous, 36 integer (0 binary)
    Coefficient statistics:
      Matrix range     [1e+00, 5e+01]
      QMatrix range    [9e-02, 2e+00]
      Objective range  [1e+00, 1e+00]
      Bounds range     [1e+00, 5e+01]
      RHS range        [1e+00, 1e+00]
    Presolve removed 72 rows and 84 columns
    Presolve time: 0.00s
    Presolved: 557 rows, 330 columns, 1471 nonzeros
    Presolved model has 72 quadratic constraint(s)
    Variable types: 294 continuous, 36 integer (36 binary)
    
    Root relaxation: objective 0.000000e+00, 155 iterations, 0.00 seconds (0.00 work units)
    
        Nodes    |    Current Node    |     Objective Bounds      |     Work
     Expl Unexpl |  Obj  Depth IntInf | Incumbent    BestBd   Gap | It/Node Time
    
         0     0    0.00000    0    2          -    0.00000      -     -    0s
    H    0     0                       4.3165824    0.00000   100%     -    0s
         0     0    0.00000    0    6    4.31658    0.00000   100%     -    0s
         0     0    0.00000    0   15    4.31658    0.00000   100%     -    0s
    H    0     0                       3.2281171    0.00000   100%     -    0s
         0     0    0.00000    0   19    3.22812    0.00000   100%     -    0s
         0     0    0.00000    0   23    3.22812    0.00000   100%     -    0s
         0     0    0.00000    0   14    3.22812    0.00000   100%     -    0s
         0     0    0.00000    0   22    3.22812    0.00000   100%     -    0s
         0     0    0.00000    0   17    3.22812    0.00000   100%     -    0s
         0     0    0.00000    0   22    3.22812    0.00000   100%     -    0s
         0     0    0.00000    0   16    3.22812    0.00000   100%     -    0s
         0     0    0.00000    0   20    3.22812    0.00000   100%     -    0s
         0     0    0.00000    0   18    3.22812    0.00000   100%     -    0s
         0     0    0.00000    0   20    3.22812    0.00000   100%     -    0s
         0     0    0.00000    0   20    3.22812    0.00000   100%     -    0s
         0     0    0.00000    0   22    3.22812    0.00000   100%     -    0s
         0     0    0.00000    0   16    3.22812    0.00000   100%     -    0s
         0     0    0.00000    0   14    3.22812    0.00000   100%     -    0s
         0     0    0.00000    0   14    3.22812    0.00000   100%     -    0s
         0     0    0.00000    0   16    3.22812    0.00000   100%     -    0s
         0     0    0.00000    0   16    3.22812    0.00000   100%     -    0s
         0     0    0.00000    0   18    3.22812    0.00000   100%     -    0s
         0     0    0.00000    0   18    3.22812    0.00000   100%     -    0s
         0     0    0.00000    0   18    3.22812    0.00000   100%     -    0s
         0     0    0.00000    0   16    3.22812    0.00000   100%     -    0s
         0     0    0.00000    0   20    3.22812    0.00000   100%     -    0s
         0     0    0.00000    0   17    3.22812    0.00000   100%     -    0s
         0     0    0.00000    0   20    3.22812    0.00000   100%     -    0s
         0     0    0.00000    0   18    3.22812    0.00000   100%     -    0s
         0     0    0.00000    0   22    3.22812    0.00000   100%     -    0s
         0     0    0.00000    0   16    3.22812    0.00000   100%     -    0s
         0     0    0.00000    0   22    3.22812    0.00000   100%     -    0s
         0     0    0.00000    0   20    3.22812    0.00000   100%     -    0s
         0     0    0.00000    0   20    3.22812    0.00000   100%     -    0s
         0     0    0.00000    0   14    3.22812    0.00000   100%     -    0s
         0     0    0.00000    0   19    3.22812    0.00000   100%     -    0s
         0     0    0.00000    0   19    3.22812    0.00000   100%     -    0s
         0     0    0.00000    0   18    3.22812    0.00000   100%     -    0s
         0     0    0.00000    0   18    3.22812    0.00000   100%     -    0s
         0     0    0.00000    0   18    3.22812    0.00000   100%     -    0s
         0     0    0.00000    0   18    3.22812    0.00000   100%     -    0s
         0     0    0.00000    0   20    3.22812    0.00000   100%     -    0s
         0     0    0.00000    0   19    3.22812    0.00000   100%     -    0s
         0     0    0.00000    0   20    3.22812    0.00000   100%     -    0s
         0     0    0.00000    0   15    3.22812    0.00000   100%     -    0s
         0     0    0.00000    0   16    3.22812    0.00000   100%     -    0s
         0     0    0.00000    0   16    3.22812    0.00000   100%     -    0s
         0     0    0.00000    0   16    3.22812    0.00000   100%     -    0s
         0     0    0.00000    0   16    3.22812    0.00000   100%     -    0s
         0     0    0.00000    0   18    3.22812    0.00000   100%     -    0s
         0     0    0.00000    0   16    3.22812    0.00000   100%     -    0s
         0     0    0.00000    0   18    3.22812    0.00000   100%     -    0s
         0     0    0.00000    0   16    3.22812    0.00000   100%     -    0s
         0     0    0.00000    0   23    3.22812    0.00000   100%     -    0s
         0     0    0.00000    0   22    3.22812    0.00000   100%     -    0s
         0     0    0.00000    0   18    3.22812    0.00000   100%     -    0s
         0     0    0.00000    0   10    3.22812    0.00000   100%     -    0s
         0     0    0.00000    0   16    3.22812    0.00000   100%     -    0s
         0     0    0.00000    0   16    3.22812    0.00000   100%     -    0s
         0     0    0.00000    0   18    3.22812    0.00000   100%     -    0s
         0     0    0.00000    0   17    3.22812    0.00000   100%     -    0s
         0     0    0.00000    0   18    3.22812    0.00000   100%     -    0s
         0     0    0.00000    0   18    3.22812    0.00000   100%     -    0s
         0     0    0.00000    0   16    3.22812    0.00000   100%     -    0s
         0     0    0.00000    0   16    3.22812    0.00000   100%     -    0s
         0     0    0.00000    0   18    3.22812    0.00000   100%     -    0s
         0     0    0.00000    0   16    3.22812    0.00000   100%     -    0s
         0     0    0.00000    0   22    3.22812    0.00000   100%     -    0s
         0     0    0.00000    0   20    3.22812    0.00000   100%     -    0s
         0     0    0.00000    0   16    3.22812    0.00000   100%     -    0s
         0     0    0.00000    0   16    3.22812    0.00000   100%     -    0s
         0     0    0.00000    0   23    3.22812    0.00000   100%     -    0s
         0     0    0.00000    0   22    3.22812    0.00000   100%     -    0s
         0     0    0.00000    0   22    3.22812    0.00000   100%     -    0s
         0     0    0.00000    0    8    3.22812    0.00000   100%     -    0s
         0     0    0.00000    0   18    3.22812    0.00000   100%     -    0s
         0     0    0.00000    0   14    3.22812    0.00000   100%     -    0s
         0     0    0.00000    0   22    3.22812    0.00000   100%     -    0s
         0     0    0.00000    0   16    3.22812    0.00000   100%     -    0s
         0     0    0.00000    0   20    3.22812    0.00000   100%     -    0s
         0     0    0.00000    0   20    3.22812    0.00000   100%     -    0s
         0     0    0.00000    0   25    3.22812    0.00000   100%     -    0s
         0     0    0.00000    0   18    3.22812    0.00000   100%     -    0s
         0     0    0.00000    0   22    3.22812    0.00000   100%     -    0s
         0     0    0.00000    0   21    3.22812    0.00000   100%     -    0s
         0     0    0.00000    0   20    3.22812    0.00000   100%     -    0s
         0     0    0.00000    0   14    3.22812    0.00000   100%     -    0s
         0     0    0.00000    0   24    3.22812    0.00000   100%     -    0s
         0     0    0.00000    0   14    3.22812    0.00000   100%     -    0s
         0     0    0.00000    0   20    3.22812    0.00000   100%     -    0s
         0     0    0.00000    0   17    3.22812    0.00000   100%     -    0s
         0     0    0.00000    0   20    3.22812    0.00000   100%     -    0s
         0     0    0.00000    0   19    3.22812    0.00000   100%     -    0s
         0     0    0.00000    0   21    3.22812    0.00000   100%     -    0s
         0     0    0.00000    0   21    3.22812    0.00000   100%     -    0s
         0     0    0.00000    0   23    3.22812    0.00000   100%     -    0s
         0     0    0.00000    0   14    3.22812    0.00000   100%     -    0s
         0     0    0.00000    0   19    3.22812    0.00000   100%     -    0s
         0     0    0.00000    0   19    3.22812    0.00000   100%     -    0s
         0     0    0.00000    0   16    3.22812    0.00000   100%     -    0s
         0     0    0.00000    0   16    3.22812    0.00000   100%     -    0s
         0     0    0.00000    0   21    3.22812    0.00000   100%     -    0s
         0     0    0.00000    0   16    3.22812    0.00000   100%     -    0s
         0     0    0.00000    0   20    3.22812    0.00000   100%     -    0s
         0     0    0.00000    0   20    3.22812    0.00000   100%     -    0s
         0     0    0.00000    0   21    3.22812    0.00000   100%     -    0s
         0     0    0.00000    0   21    3.22812    0.00000   100%     -    0s
         0     0    0.00000    0   22    3.22812    0.00000   100%     -    0s
         0     0    0.00000    0   16    3.22812    0.00000   100%     -    0s
         0     0    0.00000    0   22    3.22812    0.00000   100%     -    0s
         0     0    0.00000    0   18    3.22812    0.00000   100%     -    0s
         0     0    0.00000    0   18    3.22812    0.00000   100%     -    0s
         0     0    0.00000    0   13    3.22812    0.00000   100%     -    0s
         0     0    0.00000    0   20    3.22812    0.00000   100%     -    0s
         0     0    0.00000    0   17    3.22812    0.00000   100%     -    0s
         0     0    0.00000    0   19    3.22812    0.00000   100%     -    0s
         0     0    0.00000    0   18    3.22812    0.00000   100%     -    0s
         0     0    0.00000    0   18    3.22812    0.00000   100%     -    0s
         0     0    0.00000    0   18    3.22812    0.00000   100%     -    0s
         0     0    0.00000    0   19    3.22812    0.00000   100%     -    0s
         0     0    0.00000    0   18    3.22812    0.00000   100%     -    0s
         0     0    0.00000    0   19    3.22812    0.00000   100%     -    0s
         0     0    0.00000    0   16    3.22812    0.00000   100%     -    0s
         0     0    0.00000    0   18    3.22812    0.00000   100%     -    0s
         0     0    0.00000    0   18    3.22812    0.00000   100%     -    0s
         0     0    0.00000    0   20    3.22812    0.00000   100%     -    0s
         0     0    0.00000    0   12    3.22812    0.00000   100%     -    0s
         0     0    0.00000    0   20    3.22812    0.00000   100%     -    0s
         0     0    0.00000    0   18    3.22812    0.00000   100%     -    0s
         0     0    0.00000    0   14    3.22812    0.00000   100%     -    0s
         0     0    0.00000    0   14    3.22812    0.00000   100%     -    0s
         0     0    0.00000    0   18    3.22812    0.00000   100%     -    0s
         0     0    0.00000    0   18    3.22812    0.00000   100%     -    0s
         0     0    0.00000    0   22    3.22812    0.00000   100%     -    0s
         0     0    0.00000    0   19    3.22812    0.00000   100%     -    0s
         0     0    0.00000    0   20    3.22812    0.00000   100%     -    0s
         0     0    0.00000    0   20    3.22812    0.00000   100%     -    0s
         0     0    0.00000    0   23    3.22812    0.00000   100%     -    0s
         0     0    0.00000    0   20    3.22812    0.00000   100%     -    0s
         0     0    0.00000    0   16    3.22812    0.00000   100%     -    0s
         0     0    0.00000    0   16    3.22812    0.00000   100%     -    0s
         0     0    0.00000    0   18    3.22812    0.00000   100%     -    0s
         0     0    0.00000    0   16    3.22812    0.00000   100%     -    0s
         0     0    0.00000    0   14    3.22812    0.00000   100%     -    0s
         0     0    0.00000    0   14    3.22812    0.00000   100%     -    0s
         0     0    0.00000    0   20    3.22812    0.00000   100%     -    0s
         0     0    0.00000    0   14    3.22812    0.00000   100%     -    0s
         0     0    0.00000    0   18    3.22812    0.00000   100%     -    0s
         0     0    0.00000    0   18    3.22812    0.00000   100%     -    0s
         0     0    0.00000    0   18    3.22812    0.00000   100%     -    0s
         0     0    0.00000    0   18    3.22812    0.00000   100%     -    0s
         0     0    0.00000    0   20    3.22812    0.00000   100%     -    0s
         0     0    0.00000    0   20    3.22812    0.00000   100%     -    0s
         0     0    0.00000    0   22    3.22812    0.00000   100%     -    0s
         0     0    0.00000    0   20    3.22812    0.00000   100%     -    0s
         0     0    0.00000    0   23    3.22812    0.00000   100%     -    0s
         0     0    0.00000    0   14    3.22812    0.00000   100%     -    0s
         0     0    0.00000    0   17    3.22812    0.00000   100%     -    0s
         0     0    0.00000    0   17    3.22812    0.00000   100%     -    0s
         0     0    0.00000    0   21    3.22812    0.00000   100%     -    0s
         0     0    0.00000    0   16    3.22812    0.00000   100%     -    0s
         0     0    0.00000    0   23    3.22812    0.00000   100%     -    0s
         0     0    0.00000    0   23    3.22812    0.00000   100%     -    0s
         0     0    0.00000    0   22    3.22812    0.00000   100%     -    0s
         0     0    0.00000    0   20    3.22812    0.00000   100%     -    0s
         0     0    0.00000    0   22    3.22812    0.00000   100%     -    0s
         0     0    0.00000    0   14    3.22812    0.00000   100%     -    0s
         0     0    0.00000    0   18    3.22812    0.00000   100%     -    0s
         0     0    0.00000    0   10    3.22812    0.00000   100%     -    0s
         0     0    0.00000    0   20    3.22812    0.00000   100%     -    0s
         0     0    0.00000    0   20    3.22812    0.00000   100%     -    0s
         0     0    0.00000    0   18    3.22812    0.00000   100%     -    0s
         0     0    0.00000    0   15    3.22812    0.00000   100%     -    0s
         0     0    0.00000    0   12    3.22812    0.00000   100%     -    0s
         0     0    0.00000    0   12    3.22812    0.00000   100%     -    0s
         0     0    0.00000    0   21    3.22812    0.00000   100%     -    0s
         0     0    0.00000    0   20    3.22812    0.00000   100%     -    0s
         0     0    0.00000    0   22    3.22812    0.00000   100%     -    0s
         0     0    0.00000    0   18    3.22812    0.00000   100%     -    0s
         0     0    0.00000    0   22    3.22812    0.00000   100%     -    0s
         0     0    0.00000    0   14    3.22812    0.00000   100%     -    0s
         0     0    0.00000    0   18    3.22812    0.00000   100%     -    0s
         0     0    0.00000    0   18    3.22812    0.00000   100%     -    0s
         0     0    0.00000    0   17    3.22812    0.00000   100%     -    0s
         0     0    0.00000    0   14    3.22812    0.00000   100%     -    0s
         0     0    0.00000    0   16    3.22812    0.00000   100%     -    0s
         0     0    0.00000    0   16    3.22812    0.00000   100%     -    0s
         0     0    0.00000    0   18    3.22812    0.00000   100%     -    0s
         0     0    0.00000    0   16    3.22812    0.00000   100%     -    0s
         0     0    0.00000    0   21    3.22812    0.00000   100%     -    0s
         0     0    0.00000    0   18    3.22812    0.00000   100%     -    0s
         0     0    0.00000    0   18    3.22812    0.00000   100%     -    0s
         0     0    0.00000    0   18    3.22812    0.00000   100%     -    0s
         0     0    0.00000    0   20    3.22812    0.00000   100%     -    0s
         0     0    0.00000    0   14    3.22812    0.00000   100%     -    0s
         0     0    0.00000    0   18    3.22812    0.00000   100%     -    0s
         0     0    0.00000    0   16    3.22812    0.00000   100%     -    0s
         0     0    0.00000    0   20    3.22812    0.00000   100%     -    0s
         0     0    0.00000    0   14    3.22812    0.00000   100%     -    0s
         0     0    0.00000    0   20    3.22812    0.00000   100%     -    0s
         0     0    0.00000    0   18    3.22812    0.00000   100%     -    0s
         0     0    0.00000    0   20    3.22812    0.00000   100%     -    0s
         0     0    0.00000    0   20    3.22812    0.00000   100%     -    0s
         0     2    0.00000    0   11    3.22812    0.00000   100%     -    0s
    H  259    81                       2.4219203    0.00000   100%  45.3    1s
    H  263    78                       2.3736758    0.00000   100%  45.0    1s
    H  427   135                       2.3736743    0.22271  90.6%  51.0    1s
    H  438   136                       2.3736740    0.22271  90.6%  53.9    1s
    H  562   131                       2.2741360    0.38549  83.0%  58.1    2s
    H  641   125                       2.2741356    0.47991  78.9%  59.5    2s
    H  653   113                       2.2741356    0.60886  73.2%  60.5    2s
    H  866    74                       2.1991557    1.37897  37.3%  60.1    2s
    H  879    75                       2.1991550    1.44292  34.4%  59.8    2s
    H  920    62                       2.1991550    1.62039  26.3%  59.4    2s
    
    Explored 1055 nodes (90624 simplex iterations) in 2.85 seconds (2.76 work units)
    Thread count was 1 (of 96 available processors)
    
    Solution count 6: 2.19915 2.27414 2.37367 ... 4.31658
    
    Optimal solution found (tolerance 1.00e-06)
    Best objective 2.199154988549e+00, best bound 2.199154988549e+00, gap 0.0000%
    
    User-callback calls 1167, time in user-callback 0.00 sec

... Solving fixed model...

    Gurobi Optimizer version 13.0.0 build v13.0.0rc1 (linux64 - "Oracle Linux Server 9.7")
    
    CPU model: AMD EPYC 7643 48-Core Processor, instruction set [SSE2|AVX|AVX2]
    Thread count: 48 physical cores, 96 logical processors, using up to 1 threads
    
    Non-default parameters:
    TimeLimit  300
    MIPGap  1e-06
    LogToConsole  0
    NonConvex  2
    Threads  1
    
    Optimize a model with 422 rows, 234 columns and 952 nonzeros (Min)
    Model fingerprint: 0x2d91e888
    Model has 12 linear objective coefficients
    Model has 36 quadratic constraints
    Coefficient statistics:
      Matrix range     [1e+00, 5e+01]
      QMatrix range    [9e-02, 2e+00]
      Objective range  [1e+00, 1e+00]
      Bounds range     [1e+00, 5e+01]
      RHS range        [1e+00, 1e+00]
    Presolve removed 420 rows and 216 columns
    Presolve time: 0.00s
    Presolved: 47 rows, 60 columns, 115 nonzeros
    Presolved model has 12 second-order cone constraints
    Ordering time: 0.00s
    
    Barrier statistics:
     AA' NZ     : 2.800e+02
     Factor NZ  : 4.350e+02
     Factor Ops : 5.183e+03 (less than 1 second per iteration)
     Threads    : 1
    
                      Objective                Residual
    Iter       Primal          Dual         Primal    Dual     Compl     Time
       0   3.91099907e+02 -1.91968629e+02  1.21e+01 2.65e+00  1.05e+01     0s
       1   4.54332335e+01 -2.94532332e+01  1.33e-05 2.91e-06  9.13e-01     0s
       2   3.49228365e+00 -5.52942746e+00  6.02e-07 5.41e-07  1.10e-01     0s
       3   2.87001146e+00  1.07652745e+00  6.35e-10 6.28e-08  2.19e-02     0s
       4   2.30327578e+00  2.11180151e+00  2.70e-13 1.91e-09  2.34e-03     0s
       5   2.20496011e+00  2.19373322e+00  1.96e-13 3.39e-11  1.37e-04     0s
       6   2.19943899e+00  2.19862638e+00  9.00e-12 3.36e-12  9.91e-06     0s
       7   2.19929145e+00  2.19893145e+00  7.28e-11 1.38e-12  4.39e-06     0s
       8   2.19919522e+00  2.19913446e+00  8.86e-10 5.52e-13  7.41e-07     0s
       9   2.19916326e+00  2.19914837e+00  4.07e-09 8.90e-13  1.82e-07     0s
      10   2.19915569e+00  2.19915352e+00  3.97e-09 5.92e-12  2.65e-08     0s
    
    Barrier solved model in 10 iterations and 0.00 seconds (0.00 work units)
    Optimal objective 2.19915569e+00
    
    
    User-callback calls 0, time in user-callback 0.00 sec
    Warning: to get QCP duals, please set parameter QCPDual to 1

--- Reading solution for model GAMS_MODEL
***
*** Solver did not provide marginals for model GAMS_MODEL
***
--- Executing after solve: elapsed 0:00:02.897
--- model.gms(1545) 3 Mb
--- model.gms(2289) 5 Mb
--- Putfile results /local/scratch/a/sgusev/repos/k_means/data/gams_gurobi_gdp.hull_exact/no_mode/2026-02-14_17-15-55/original/results.dat
--- Putfile statresults /local/scratch/a/sgusev/repos/k_means/data/gams_gurobi_gdp.hull_exact/no_mode/2026-02-14_17-15-55/original/resultsstat.dat
*** Status: Normal completion
--- Job model.gms Stop 02/14/26 17:15:58 elapsed 0:00:02.898
Original problem solved. Time taken: 3.460585594177246 seconds
Original objective value: 2.199155693261826
